; benchmark generated from python API
(set-info :status unknown)
(declare-fun x_months () (_ BitVec 32))
(declare-fun x_beta () (_ BitVec 32))
(declare-fun y_months () (_ BitVec 32))
(declare-fun y_beta () (_ BitVec 32))
(assert
 (bvsle (_ bv4294966096 32) x_months))
(assert
 (bvsge (_ bv1199 32) x_months))
(assert
 (let ((?x46324 (bvsmod x_months (_ bv48 32))))
 (let ((?x13 ((as const (Array (_ BitVec 32) (_ BitVec 32))) (_ bv0 32))))
 (let ((?x15 (store ?x13 (_ bv0 32) (_ bv31 32))))
 (let ((?x18 (store ?x15 (_ bv1 32) (_ bv30 32))))
 (let ((?x20 (store ?x18 (_ bv2 32) (_ bv31 32))))
 (let ((?x22 (store ?x20 (_ bv3 32) (_ bv30 32))))
 (let ((?x24 (store ?x22 (_ bv4 32) (_ bv31 32))))
 (let ((?x26 (store ?x24 (_ bv5 32) (_ bv31 32))))
 (let ((?x28 (store ?x26 (_ bv6 32) (_ bv30 32))))
 (let ((?x30 (store ?x28 (_ bv7 32) (_ bv31 32))))
 (let ((?x32 (store ?x30 (_ bv8 32) (_ bv30 32))))
 (let ((?x34 (store ?x32 (_ bv9 32) (_ bv31 32))))
 (let ((?x36 (store ?x34 (_ bv10 32) (_ bv31 32))))
 (let ((?x39 (store ?x36 (_ bv11 32) (_ bv28 32))))
 (let ((?x41 (store ?x39 (_ bv12 32) (_ bv31 32))))
 (let ((?x43 (store ?x41 (_ bv13 32) (_ bv30 32))))
 (let ((?x45 (store ?x43 (_ bv14 32) (_ bv31 32))))
 (let ((?x47 (store ?x45 (_ bv15 32) (_ bv30 32))))
 (let ((?x49 (store ?x47 (_ bv16 32) (_ bv31 32))))
 (let ((?x51 (store ?x49 (_ bv17 32) (_ bv31 32))))
 (let ((?x53 (store ?x51 (_ bv18 32) (_ bv30 32))))
 (let ((?x55 (store ?x53 (_ bv19 32) (_ bv31 32))))
 (let ((?x57 (store ?x55 (_ bv20 32) (_ bv30 32))))
 (let ((?x59 (store ?x57 (_ bv21 32) (_ bv31 32))))
 (let ((?x61 (store ?x59 (_ bv22 32) (_ bv31 32))))
 (let ((?x63 (store ?x61 (_ bv23 32) (_ bv28 32))))
 (let ((?x65 (store ?x63 (_ bv24 32) (_ bv31 32))))
 (let ((?x67 (store ?x65 (_ bv25 32) (_ bv30 32))))
 (let ((?x69 (store ?x67 (_ bv26 32) (_ bv31 32))))
 (let ((?x71 (store ?x69 (_ bv27 32) (_ bv30 32))))
 (let ((?x72 (store ?x71 (_ bv28 32) (_ bv31 32))))
 (let ((?x74 (store ?x72 (_ bv29 32) (_ bv31 32))))
 (let ((?x75 (store ?x74 (_ bv30 32) (_ bv30 32))))
 (let ((?x76 (store ?x75 (_ bv31 32) (_ bv31 32))))
 (let ((?x78 (store ?x76 (_ bv32 32) (_ bv30 32))))
 (let ((?x80 (store ?x78 (_ bv33 32) (_ bv31 32))))
 (let ((?x82 (store ?x80 (_ bv34 32) (_ bv31 32))))
 (let ((?x84 (store ?x82 (_ bv35 32) (_ bv28 32))))
 (let ((?x86 (store ?x84 (_ bv36 32) (_ bv31 32))))
 (let ((?x88 (store ?x86 (_ bv37 32) (_ bv30 32))))
 (let ((?x90 (store ?x88 (_ bv38 32) (_ bv31 32))))
 (let ((?x92 (store ?x90 (_ bv39 32) (_ bv30 32))))
 (let ((?x94 (store ?x92 (_ bv40 32) (_ bv31 32))))
 (let ((?x96 (store ?x94 (_ bv41 32) (_ bv31 32))))
 (let ((?x98 (store ?x96 (_ bv42 32) (_ bv30 32))))
 (let ((?x100 (store ?x98 (_ bv43 32) (_ bv31 32))))
 (let ((?x102 (store ?x100 (_ bv44 32) (_ bv30 32))))
 (let ((?x104 (store ?x102 (_ bv45 32) (_ bv31 32))))
 (let ((?x106 (store ?x104 (_ bv46 32) (_ bv31 32))))
 (let ((?x108 (store ?x106 (_ bv47 32) (_ bv29 32))))
 (let (($x40103 (or (= (_ bv22802 32) (bvadd x_months (_ bv24003 32))) (= (_ bv25202 32) (bvadd x_months (_ bv24003 32))))))
 (let ((?x44461 (ite $x40103 (_ bv28 32) (select ?x108 ?x46324))))
 (let (($x45977 (bvsle (_ bv0 32) x_beta)))
 (and $x45977 (bvslt x_beta ?x44461))))))))))))))))))))))))))))))))))))))))))))))))))))))))
(assert
 (bvsle (_ bv4294966096 32) y_months))
(assert
 (bvsge (_ bv1199 32) y_months))
(assert
 (let ((?x23725 (bvsmod y_months (_ bv48 32))))
 (let ((?x13 ((as const (Array (_ BitVec 32) (_ BitVec 32))) (_ bv0 32))))
 (let ((?x15 (store ?x13 (_ bv0 32) (_ bv31 32))))
 (let ((?x18 (store ?x15 (_ bv1 32) (_ bv30 32))))
 (let ((?x20 (store ?x18 (_ bv2 32) (_ bv31 32))))
 (let ((?x22 (store ?x20 (_ bv3 32) (_ bv30 32))))
 (let ((?x24 (store ?x22 (_ bv4 32) (_ bv31 32))))
 (let ((?x26 (store ?x24 (_ bv5 32) (_ bv31 32))))
 (let ((?x28 (store ?x26 (_ bv6 32) (_ bv30 32))))
 (let ((?x30 (store ?x28 (_ bv7 32) (_ bv31 32))))
 (let ((?x32 (store ?x30 (_ bv8 32) (_ bv30 32))))
 (let ((?x34 (store ?x32 (_ bv9 32) (_ bv31 32))))
 (let ((?x36 (store ?x34 (_ bv10 32) (_ bv31 32))))
 (let ((?x39 (store ?x36 (_ bv11 32) (_ bv28 32))))
 (let ((?x41 (store ?x39 (_ bv12 32) (_ bv31 32))))
 (let ((?x43 (store ?x41 (_ bv13 32) (_ bv30 32))))
 (let ((?x45 (store ?x43 (_ bv14 32) (_ bv31 32))))
 (let ((?x47 (store ?x45 (_ bv15 32) (_ bv30 32))))
 (let ((?x49 (store ?x47 (_ bv16 32) (_ bv31 32))))
 (let ((?x51 (store ?x49 (_ bv17 32) (_ bv31 32))))
 (let ((?x53 (store ?x51 (_ bv18 32) (_ bv30 32))))
 (let ((?x55 (store ?x53 (_ bv19 32) (_ bv31 32))))
 (let ((?x57 (store ?x55 (_ bv20 32) (_ bv30 32))))
 (let ((?x59 (store ?x57 (_ bv21 32) (_ bv31 32))))
 (let ((?x61 (store ?x59 (_ bv22 32) (_ bv31 32))))
 (let ((?x63 (store ?x61 (_ bv23 32) (_ bv28 32))))
 (let ((?x65 (store ?x63 (_ bv24 32) (_ bv31 32))))
 (let ((?x67 (store ?x65 (_ bv25 32) (_ bv30 32))))
 (let ((?x69 (store ?x67 (_ bv26 32) (_ bv31 32))))
 (let ((?x71 (store ?x69 (_ bv27 32) (_ bv30 32))))
 (let ((?x72 (store ?x71 (_ bv28 32) (_ bv31 32))))
 (let ((?x74 (store ?x72 (_ bv29 32) (_ bv31 32))))
 (let ((?x75 (store ?x74 (_ bv30 32) (_ bv30 32))))
 (let ((?x76 (store ?x75 (_ bv31 32) (_ bv31 32))))
 (let ((?x78 (store ?x76 (_ bv32 32) (_ bv30 32))))
 (let ((?x80 (store ?x78 (_ bv33 32) (_ bv31 32))))
 (let ((?x82 (store ?x80 (_ bv34 32) (_ bv31 32))))
 (let ((?x84 (store ?x82 (_ bv35 32) (_ bv28 32))))
 (let ((?x86 (store ?x84 (_ bv36 32) (_ bv31 32))))
 (let ((?x88 (store ?x86 (_ bv37 32) (_ bv30 32))))
 (let ((?x90 (store ?x88 (_ bv38 32) (_ bv31 32))))
 (let ((?x92 (store ?x90 (_ bv39 32) (_ bv30 32))))
 (let ((?x94 (store ?x92 (_ bv40 32) (_ bv31 32))))
 (let ((?x96 (store ?x94 (_ bv41 32) (_ bv31 32))))
 (let ((?x98 (store ?x96 (_ bv42 32) (_ bv30 32))))
 (let ((?x100 (store ?x98 (_ bv43 32) (_ bv31 32))))
 (let ((?x102 (store ?x100 (_ bv44 32) (_ bv30 32))))
 (let ((?x104 (store ?x102 (_ bv45 32) (_ bv31 32))))
 (let ((?x106 (store ?x104 (_ bv46 32) (_ bv31 32))))
 (let ((?x108 (store ?x106 (_ bv47 32) (_ bv29 32))))
 (let (($x29379 (or (= (_ bv22802 32) (bvadd y_months (_ bv24003 32))) (= (_ bv25202 32) (bvadd y_months (_ bv24003 32))))))
 (let ((?x2595 (ite $x29379 (_ bv28 32) (select ?x108 ?x23725))))
 (let (($x5525 (bvsle (_ bv0 32) y_beta)))
 (and $x5525 (bvslt y_beta ?x2595))))))))))))))))))))))))))))))))))))))))))))))))))))))))
(assert
 (and (= x_months (bvsub (bvadd (bvmul (_ bv2022 32) (_ bv12 32)) (_ bv1 32)) (_ bv24003 32))) (= (_ bv14 32) x_beta)))
(assert
 (let ((?x34212 (bvadd x_months (_ bv13 32))))
 (let ((?x55538 (bvsmod ?x34212 (_ bv48 32))))
 (let ((?x70388 (ite (bvsgt (_ bv22803 32) (bvadd ?x34212 (_ bv24003 32))) (_ bv1 32) (ite (bvsle (_ bv25203 32) (bvadd ?x34212 (_ bv24003 32))) (_ bv4294967295 32) (_ bv0 32)))))
 (let ((?x13 ((as const (Array (_ BitVec 32) (_ BitVec 32))) (_ bv0 32))))
 (let ((?x15 (store ?x13 (_ bv0 32) (_ bv31 32))))
 (let ((?x18 (store ?x15 (_ bv1 32) (_ bv30 32))))
 (let ((?x20 (store ?x18 (_ bv2 32) (_ bv31 32))))
 (let ((?x22 (store ?x20 (_ bv3 32) (_ bv30 32))))
 (let ((?x24 (store ?x22 (_ bv4 32) (_ bv31 32))))
 (let ((?x26 (store ?x24 (_ bv5 32) (_ bv31 32))))
 (let ((?x28 (store ?x26 (_ bv6 32) (_ bv30 32))))
 (let ((?x30 (store ?x28 (_ bv7 32) (_ bv31 32))))
 (let ((?x32 (store ?x30 (_ bv8 32) (_ bv30 32))))
 (let ((?x34 (store ?x32 (_ bv9 32) (_ bv31 32))))
 (let ((?x36 (store ?x34 (_ bv10 32) (_ bv31 32))))
 (let ((?x39 (store ?x36 (_ bv11 32) (_ bv28 32))))
 (let ((?x41 (store ?x39 (_ bv12 32) (_ bv31 32))))
 (let ((?x43 (store ?x41 (_ bv13 32) (_ bv30 32))))
 (let ((?x45 (store ?x43 (_ bv14 32) (_ bv31 32))))
 (let ((?x47 (store ?x45 (_ bv15 32) (_ bv30 32))))
 (let ((?x49 (store ?x47 (_ bv16 32) (_ bv31 32))))
 (let ((?x51 (store ?x49 (_ bv17 32) (_ bv31 32))))
 (let ((?x53 (store ?x51 (_ bv18 32) (_ bv30 32))))
 (let ((?x55 (store ?x53 (_ bv19 32) (_ bv31 32))))
 (let ((?x57 (store ?x55 (_ bv20 32) (_ bv30 32))))
 (let ((?x59 (store ?x57 (_ bv21 32) (_ bv31 32))))
 (let ((?x61 (store ?x59 (_ bv22 32) (_ bv31 32))))
 (let ((?x63 (store ?x61 (_ bv23 32) (_ bv28 32))))
 (let ((?x65 (store ?x63 (_ bv24 32) (_ bv31 32))))
 (let ((?x67 (store ?x65 (_ bv25 32) (_ bv30 32))))
 (let ((?x69 (store ?x67 (_ bv26 32) (_ bv31 32))))
 (let ((?x71 (store ?x69 (_ bv27 32) (_ bv30 32))))
 (let ((?x72 (store ?x71 (_ bv28 32) (_ bv31 32))))
 (let ((?x74 (store ?x72 (_ bv29 32) (_ bv31 32))))
 (let ((?x75 (store ?x74 (_ bv30 32) (_ bv30 32))))
 (let ((?x76 (store ?x75 (_ bv31 32) (_ bv31 32))))
 (let ((?x78 (store ?x76 (_ bv32 32) (_ bv30 32))))
 (let ((?x80 (store ?x78 (_ bv33 32) (_ bv31 32))))
 (let ((?x82 (store ?x80 (_ bv34 32) (_ bv31 32))))
 (let ((?x84 (store ?x82 (_ bv35 32) (_ bv28 32))))
 (let ((?x86 (store ?x84 (_ bv36 32) (_ bv31 32))))
 (let ((?x88 (store ?x86 (_ bv37 32) (_ bv30 32))))
 (let ((?x90 (store ?x88 (_ bv38 32) (_ bv31 32))))
 (let ((?x92 (store ?x90 (_ bv39 32) (_ bv30 32))))
 (let ((?x94 (store ?x92 (_ bv40 32) (_ bv31 32))))
 (let ((?x96 (store ?x94 (_ bv41 32) (_ bv31 32))))
 (let ((?x98 (store ?x96 (_ bv42 32) (_ bv30 32))))
 (let ((?x100 (store ?x98 (_ bv43 32) (_ bv31 32))))
 (let ((?x102 (store ?x100 (_ bv44 32) (_ bv30 32))))
 (let ((?x104 (store ?x102 (_ bv45 32) (_ bv31 32))))
 (let ((?x106 (store ?x104 (_ bv46 32) (_ bv31 32))))
 (let ((?x108 (store ?x106 (_ bv47 32) (_ bv29 32))))
 (let ((?x79585 (ite (or (= (_ bv22802 32) (bvadd ?x34212 (_ bv24003 32))) (= (_ bv25202 32) (bvadd ?x34212 (_ bv24003 32)))) (_ bv28 32) (select ?x108 ?x55538))))
 (let ((?x30898 (bvsub ?x79585 (_ bv1 32))))
 (let ((?x52283 (ite (bvsgt (_ bv0 32) x_beta) (_ bv0 32) (ite (bvsgt x_beta ?x30898) ?x30898 x_beta))))
 (let ((?x114 (store (store (store (store ?x13 (_ bv0 32) (_ bv0 32)) (_ bv1 32) (_ bv31 32)) (_ bv2 32) (_ bv61 32)) (_ bv3 32) (_ bv92 32))))
 (let ((?x122 (store (store (store (store ?x114 (_ bv4 32) (_ bv122 32)) (_ bv5 32) (_ bv153 32)) (_ bv6 32) (_ bv184 32)) (_ bv7 32) (_ bv214 32))))
 (let ((?x130 (store (store (store (store ?x122 (_ bv8 32) (_ bv245 32)) (_ bv9 32) (_ bv275 32)) (_ bv10 32) (_ bv306 32)) (_ bv11 32) (_ bv337 32))))
 (let ((?x138 (store (store (store (store ?x130 (_ bv12 32) (_ bv365 32)) (_ bv13 32) (_ bv396 32)) (_ bv14 32) (_ bv426 32)) (_ bv15 32) (_ bv457 32))))
 (let ((?x146 (store (store (store (store ?x138 (_ bv16 32) (_ bv487 32)) (_ bv17 32) (_ bv518 32)) (_ bv18 32) (_ bv549 32)) (_ bv19 32) (_ bv579 32))))
 (let ((?x154 (store (store (store (store ?x146 (_ bv20 32) (_ bv610 32)) (_ bv21 32) (_ bv640 32)) (_ bv22 32) (_ bv671 32)) (_ bv23 32) (_ bv702 32))))
 (let ((?x162 (store (store (store (store ?x154 (_ bv24 32) (_ bv730 32)) (_ bv25 32) (_ bv761 32)) (_ bv26 32) (_ bv791 32)) (_ bv27 32) (_ bv822 32))))
 (let ((?x170 (store (store (store (store ?x162 (_ bv28 32) (_ bv852 32)) (_ bv29 32) (_ bv883 32)) (_ bv30 32) (_ bv914 32)) (_ bv31 32) (_ bv944 32))))
 (let ((?x178 (store (store (store (store ?x170 (_ bv32 32) (_ bv975 32)) (_ bv33 32) (_ bv1005 32)) (_ bv34 32) (_ bv1036 32)) (_ bv35 32) (_ bv1067 32))))
 (let ((?x186 (store (store (store (store ?x178 (_ bv36 32) (_ bv1095 32)) (_ bv37 32) (_ bv1126 32)) (_ bv38 32) (_ bv1156 32)) (_ bv39 32) (_ bv1187 32))))
 (let ((?x194 (store (store (store (store ?x186 (_ bv40 32) (_ bv1217 32)) (_ bv41 32) (_ bv1248 32)) (_ bv42 32) (_ bv1279 32)) (_ bv43 32) (_ bv1309 32))))
 (let ((?x202 (store (store (store (store ?x194 (_ bv44 32) (_ bv1340 32)) (_ bv45 32) (_ bv1370 32)) (_ bv46 32) (_ bv1401 32)) (_ bv47 32) (_ bv1432 32))))
 (let ((?x85542 (bvadd (bvadd (bvadd (select ?x202 ?x55538) ?x52283) ?x70388) (_ bv40 32))))
 (let ((?x95590 (ite (bvuge ?x85542 (_ bv2147483648 32)) (bvsub ?x85542 (_ bv0 32)) ?x85542)))
 (let ((?x30076 (bvsdiv ?x95590 (_ bv1461 32))))
 (let ((?x34363 (ite (and (bvuge ?x95590 (_ bv2147483648 32)) (and (distinct (_ bv0 32) (bvsmod ?x95590 (_ bv1461 32))) true)) (bvsub ?x30076 (_ bv1 32)) ?x30076)))
 (let ((?x26334 (bvadd ?x34212 (bvmul ?x34363 (_ bv48 32)))))
 (let ((?x9565 (bvadd (bvadd ?x26334 (bvsub (_ bv1 32) ?x55538)) (_ bv24003 32))))
 (let ((?x95814 (bvadd (select ?x202 (_ bv1 32)) (ite (bvsgt (_ bv22803 32) ?x9565) (_ bv1 32) (ite (bvsle (_ bv25203 32) ?x9565) (_ bv4294967295 32) (_ bv0 32))))))
 (let ((?x41820 (bvsmod ?x85542 (_ bv1461 32))))
 (let ((?x23158 (ite (bvsle (_ bv25203 32) (bvadd (bvadd ?x26334 (bvsub (_ bv2 32) ?x55538)) (_ bv24003 32))) (_ bv4294967295 32) (_ bv0 32))))
 (let ((?x14556 (ite (bvsgt (_ bv22803 32) (bvadd (bvadd ?x26334 (bvsub (_ bv2 32) ?x55538)) (_ bv24003 32))) (_ bv1 32) ?x23158)))
 (let ((?x53940 (ite (bvsge ?x41820 (bvadd (select ?x202 (_ bv2 32)) ?x14556)) (_ bv2 32) (ite (bvsge ?x41820 ?x95814) (_ bv1 32) (_ bv0 32)))))
 (let ((?x15492 (ite (bvsle (_ bv25203 32) (bvadd (bvadd ?x26334 (bvsub (_ bv3 32) ?x55538)) (_ bv24003 32))) (_ bv4294967295 32) (_ bv0 32))))
 (let ((?x77869 (ite (bvsgt (_ bv22803 32) (bvadd (bvadd ?x26334 (bvsub (_ bv3 32) ?x55538)) (_ bv24003 32))) (_ bv1 32) ?x15492)))
 (let ((?x21959 (ite (bvsle (_ bv25203 32) (bvadd (bvadd ?x26334 (bvsub (_ bv4 32) ?x55538)) (_ bv24003 32))) (_ bv4294967295 32) (_ bv0 32))))
 (let ((?x95735 (ite (bvsgt (_ bv22803 32) (bvadd (bvadd ?x26334 (bvsub (_ bv4 32) ?x55538)) (_ bv24003 32))) (_ bv1 32) ?x21959)))
 (let ((?x55262 (ite (bvsge ?x41820 (bvadd (select ?x202 (_ bv4 32)) ?x95735)) (_ bv4 32) (ite (bvsge ?x41820 (bvadd (select ?x202 (_ bv3 32)) ?x77869)) (_ bv3 32) ?x53940))))
 (let ((?x4296 (ite (bvsle (_ bv25203 32) (bvadd (bvadd ?x26334 (bvsub (_ bv5 32) ?x55538)) (_ bv24003 32))) (_ bv4294967295 32) (_ bv0 32))))
 (let ((?x463 (ite (bvsgt (_ bv22803 32) (bvadd (bvadd ?x26334 (bvsub (_ bv5 32) ?x55538)) (_ bv24003 32))) (_ bv1 32) ?x4296)))
 (let ((?x21050 (ite (bvsle (_ bv25203 32) (bvadd (bvadd ?x26334 (bvsub (_ bv6 32) ?x55538)) (_ bv24003 32))) (_ bv4294967295 32) (_ bv0 32))))
 (let ((?x22094 (ite (bvsgt (_ bv22803 32) (bvadd (bvadd ?x26334 (bvsub (_ bv6 32) ?x55538)) (_ bv24003 32))) (_ bv1 32) ?x21050)))
 (let ((?x17720 (ite (bvsge ?x41820 (bvadd (select ?x202 (_ bv6 32)) ?x22094)) (_ bv6 32) (ite (bvsge ?x41820 (bvadd (select ?x202 (_ bv5 32)) ?x463)) (_ bv5 32) ?x55262))))
 (let ((?x25872 (ite (bvsle (_ bv25203 32) (bvadd (bvadd ?x26334 (bvsub (_ bv7 32) ?x55538)) (_ bv24003 32))) (_ bv4294967295 32) (_ bv0 32))))
 (let ((?x77288 (ite (bvsgt (_ bv22803 32) (bvadd (bvadd ?x26334 (bvsub (_ bv7 32) ?x55538)) (_ bv24003 32))) (_ bv1 32) ?x25872)))
 (let ((?x73846 (ite (bvsle (_ bv25203 32) (bvadd (bvadd ?x26334 (bvsub (_ bv8 32) ?x55538)) (_ bv24003 32))) (_ bv4294967295 32) (_ bv0 32))))
 (let ((?x83944 (ite (bvsgt (_ bv22803 32) (bvadd (bvadd ?x26334 (bvsub (_ bv8 32) ?x55538)) (_ bv24003 32))) (_ bv1 32) ?x73846)))
 (let ((?x59544 (ite (bvsge ?x41820 (bvadd (select ?x202 (_ bv8 32)) ?x83944)) (_ bv8 32) (ite (bvsge ?x41820 (bvadd (select ?x202 (_ bv7 32)) ?x77288)) (_ bv7 32) ?x17720))))
 (let ((?x19240 (ite (bvsle (_ bv25203 32) (bvadd (bvadd ?x26334 (bvsub (_ bv9 32) ?x55538)) (_ bv24003 32))) (_ bv4294967295 32) (_ bv0 32))))
 (let ((?x73693 (ite (bvsgt (_ bv22803 32) (bvadd (bvadd ?x26334 (bvsub (_ bv9 32) ?x55538)) (_ bv24003 32))) (_ bv1 32) ?x19240)))
 (let ((?x89685 (ite (bvsle (_ bv25203 32) (bvadd (bvadd ?x26334 (bvsub (_ bv10 32) ?x55538)) (_ bv24003 32))) (_ bv4294967295 32) (_ bv0 32))))
 (let ((?x42243 (ite (bvsgt (_ bv22803 32) (bvadd (bvadd ?x26334 (bvsub (_ bv10 32) ?x55538)) (_ bv24003 32))) (_ bv1 32) ?x89685)))
 (let ((?x19770 (ite (bvsge ?x41820 (bvadd (select ?x202 (_ bv10 32)) ?x42243)) (_ bv10 32) (ite (bvsge ?x41820 (bvadd (select ?x202 (_ bv9 32)) ?x73693)) (_ bv9 32) ?x59544))))
 (let ((?x33284 (ite (bvsle (_ bv25203 32) (bvadd (bvadd ?x26334 (bvsub (_ bv11 32) ?x55538)) (_ bv24003 32))) (_ bv4294967295 32) (_ bv0 32))))
 (let ((?x18253 (ite (bvsgt (_ bv22803 32) (bvadd (bvadd ?x26334 (bvsub (_ bv11 32) ?x55538)) (_ bv24003 32))) (_ bv1 32) ?x33284)))
 (let ((?x3575 (ite (bvsle (_ bv25203 32) (bvadd (bvadd ?x26334 (bvsub (_ bv12 32) ?x55538)) (_ bv24003 32))) (_ bv4294967295 32) (_ bv0 32))))
 (let ((?x69302 (ite (bvsgt (_ bv22803 32) (bvadd (bvadd ?x26334 (bvsub (_ bv12 32) ?x55538)) (_ bv24003 32))) (_ bv1 32) ?x3575)))
 (let ((?x99063 (ite (bvsge ?x41820 (bvadd (select ?x202 (_ bv12 32)) ?x69302)) (_ bv12 32) (ite (bvsge ?x41820 (bvadd (select ?x202 (_ bv11 32)) ?x18253)) (_ bv11 32) ?x19770))))
 (let ((?x96323 (ite (bvsle (_ bv25203 32) (bvadd (bvadd ?x26334 (bvsub (_ bv13 32) ?x55538)) (_ bv24003 32))) (_ bv4294967295 32) (_ bv0 32))))
 (let ((?x83275 (ite (bvsgt (_ bv22803 32) (bvadd (bvadd ?x26334 (bvsub (_ bv13 32) ?x55538)) (_ bv24003 32))) (_ bv1 32) ?x96323)))
 (let ((?x39315 (ite (bvsle (_ bv25203 32) (bvadd (bvadd ?x26334 (bvsub (_ bv14 32) ?x55538)) (_ bv24003 32))) (_ bv4294967295 32) (_ bv0 32))))
 (let ((?x82757 (ite (bvsgt (_ bv22803 32) (bvadd (bvadd ?x26334 (bvsub (_ bv14 32) ?x55538)) (_ bv24003 32))) (_ bv1 32) ?x39315)))
 (let ((?x95494 (ite (bvsge ?x41820 (bvadd (select ?x202 (_ bv14 32)) ?x82757)) (_ bv14 32) (ite (bvsge ?x41820 (bvadd (select ?x202 (_ bv13 32)) ?x83275)) (_ bv13 32) ?x99063))))
 (let ((?x40072 (ite (bvsle (_ bv25203 32) (bvadd (bvadd ?x26334 (bvsub (_ bv15 32) ?x55538)) (_ bv24003 32))) (_ bv4294967295 32) (_ bv0 32))))
 (let ((?x82460 (ite (bvsgt (_ bv22803 32) (bvadd (bvadd ?x26334 (bvsub (_ bv15 32) ?x55538)) (_ bv24003 32))) (_ bv1 32) ?x40072)))
 (let ((?x55223 (ite (bvsle (_ bv25203 32) (bvadd (bvadd ?x26334 (bvsub (_ bv16 32) ?x55538)) (_ bv24003 32))) (_ bv4294967295 32) (_ bv0 32))))
 (let ((?x38559 (ite (bvsgt (_ bv22803 32) (bvadd (bvadd ?x26334 (bvsub (_ bv16 32) ?x55538)) (_ bv24003 32))) (_ bv1 32) ?x55223)))
 (let ((?x45146 (ite (bvsge ?x41820 (bvadd (select ?x202 (_ bv16 32)) ?x38559)) (_ bv16 32) (ite (bvsge ?x41820 (bvadd (select ?x202 (_ bv15 32)) ?x82460)) (_ bv15 32) ?x95494))))
 (let ((?x88511 (ite (bvsle (_ bv25203 32) (bvadd (bvadd ?x26334 (bvsub (_ bv17 32) ?x55538)) (_ bv24003 32))) (_ bv4294967295 32) (_ bv0 32))))
 (let ((?x29586 (ite (bvsgt (_ bv22803 32) (bvadd (bvadd ?x26334 (bvsub (_ bv17 32) ?x55538)) (_ bv24003 32))) (_ bv1 32) ?x88511)))
 (let ((?x85336 (ite (bvsle (_ bv25203 32) (bvadd (bvadd ?x26334 (bvsub (_ bv18 32) ?x55538)) (_ bv24003 32))) (_ bv4294967295 32) (_ bv0 32))))
 (let ((?x47746 (ite (bvsgt (_ bv22803 32) (bvadd (bvadd ?x26334 (bvsub (_ bv18 32) ?x55538)) (_ bv24003 32))) (_ bv1 32) ?x85336)))
 (let ((?x35013 (ite (bvsge ?x41820 (bvadd (select ?x202 (_ bv18 32)) ?x47746)) (_ bv18 32) (ite (bvsge ?x41820 (bvadd (select ?x202 (_ bv17 32)) ?x29586)) (_ bv17 32) ?x45146))))
 (let ((?x62889 (ite (bvsle (_ bv25203 32) (bvadd (bvadd ?x26334 (bvsub (_ bv19 32) ?x55538)) (_ bv24003 32))) (_ bv4294967295 32) (_ bv0 32))))
 (let ((?x14139 (ite (bvsgt (_ bv22803 32) (bvadd (bvadd ?x26334 (bvsub (_ bv19 32) ?x55538)) (_ bv24003 32))) (_ bv1 32) ?x62889)))
 (let ((?x7842 (ite (bvsle (_ bv25203 32) (bvadd (bvadd ?x26334 (bvsub (_ bv20 32) ?x55538)) (_ bv24003 32))) (_ bv4294967295 32) (_ bv0 32))))
 (let ((?x19172 (ite (bvsgt (_ bv22803 32) (bvadd (bvadd ?x26334 (bvsub (_ bv20 32) ?x55538)) (_ bv24003 32))) (_ bv1 32) ?x7842)))
 (let ((?x9410 (ite (bvsge ?x41820 (bvadd (select ?x202 (_ bv20 32)) ?x19172)) (_ bv20 32) (ite (bvsge ?x41820 (bvadd (select ?x202 (_ bv19 32)) ?x14139)) (_ bv19 32) ?x35013))))
 (let ((?x47381 (ite (bvsle (_ bv25203 32) (bvadd (bvadd ?x26334 (bvsub (_ bv21 32) ?x55538)) (_ bv24003 32))) (_ bv4294967295 32) (_ bv0 32))))
 (let ((?x33960 (ite (bvsgt (_ bv22803 32) (bvadd (bvadd ?x26334 (bvsub (_ bv21 32) ?x55538)) (_ bv24003 32))) (_ bv1 32) ?x47381)))
 (let ((?x9361 (ite (bvsle (_ bv25203 32) (bvadd (bvadd ?x26334 (bvsub (_ bv22 32) ?x55538)) (_ bv24003 32))) (_ bv4294967295 32) (_ bv0 32))))
 (let ((?x37702 (ite (bvsgt (_ bv22803 32) (bvadd (bvadd ?x26334 (bvsub (_ bv22 32) ?x55538)) (_ bv24003 32))) (_ bv1 32) ?x9361)))
 (let ((?x29707 (ite (bvsge ?x41820 (bvadd (select ?x202 (_ bv22 32)) ?x37702)) (_ bv22 32) (ite (bvsge ?x41820 (bvadd (select ?x202 (_ bv21 32)) ?x33960)) (_ bv21 32) ?x9410))))
 (let ((?x18932 (ite (bvsle (_ bv25203 32) (bvadd (bvadd ?x26334 (bvsub (_ bv23 32) ?x55538)) (_ bv24003 32))) (_ bv4294967295 32) (_ bv0 32))))
 (let ((?x80082 (ite (bvsgt (_ bv22803 32) (bvadd (bvadd ?x26334 (bvsub (_ bv23 32) ?x55538)) (_ bv24003 32))) (_ bv1 32) ?x18932)))
 (let ((?x40842 (ite (bvsle (_ bv25203 32) (bvadd (bvadd ?x26334 (bvsub (_ bv24 32) ?x55538)) (_ bv24003 32))) (_ bv4294967295 32) (_ bv0 32))))
 (let ((?x23567 (ite (bvsgt (_ bv22803 32) (bvadd (bvadd ?x26334 (bvsub (_ bv24 32) ?x55538)) (_ bv24003 32))) (_ bv1 32) ?x40842)))
 (let ((?x903 (ite (bvsge ?x41820 (bvadd (select ?x202 (_ bv24 32)) ?x23567)) (_ bv24 32) (ite (bvsge ?x41820 (bvadd (select ?x202 (_ bv23 32)) ?x80082)) (_ bv23 32) ?x29707))))
 (let ((?x20363 (ite (bvsle (_ bv25203 32) (bvadd (bvadd ?x26334 (bvsub (_ bv25 32) ?x55538)) (_ bv24003 32))) (_ bv4294967295 32) (_ bv0 32))))
 (let ((?x77741 (ite (bvsgt (_ bv22803 32) (bvadd (bvadd ?x26334 (bvsub (_ bv25 32) ?x55538)) (_ bv24003 32))) (_ bv1 32) ?x20363)))
 (let ((?x73930 (ite (bvsle (_ bv25203 32) (bvadd (bvadd ?x26334 (bvsub (_ bv26 32) ?x55538)) (_ bv24003 32))) (_ bv4294967295 32) (_ bv0 32))))
 (let ((?x4228 (ite (bvsgt (_ bv22803 32) (bvadd (bvadd ?x26334 (bvsub (_ bv26 32) ?x55538)) (_ bv24003 32))) (_ bv1 32) ?x73930)))
 (let ((?x29319 (ite (bvsge ?x41820 (bvadd (select ?x202 (_ bv26 32)) ?x4228)) (_ bv26 32) (ite (bvsge ?x41820 (bvadd (select ?x202 (_ bv25 32)) ?x77741)) (_ bv25 32) ?x903))))
 (let ((?x70088 (ite (bvsle (_ bv25203 32) (bvadd (bvadd ?x26334 (bvsub (_ bv27 32) ?x55538)) (_ bv24003 32))) (_ bv4294967295 32) (_ bv0 32))))
 (let ((?x79466 (ite (bvsgt (_ bv22803 32) (bvadd (bvadd ?x26334 (bvsub (_ bv27 32) ?x55538)) (_ bv24003 32))) (_ bv1 32) ?x70088)))
 (let ((?x94393 (ite (bvsle (_ bv25203 32) (bvadd (bvadd ?x26334 (bvsub (_ bv28 32) ?x55538)) (_ bv24003 32))) (_ bv4294967295 32) (_ bv0 32))))
 (let ((?x40757 (ite (bvsgt (_ bv22803 32) (bvadd (bvadd ?x26334 (bvsub (_ bv28 32) ?x55538)) (_ bv24003 32))) (_ bv1 32) ?x94393)))
 (let ((?x73660 (ite (bvsge ?x41820 (bvadd (select ?x202 (_ bv28 32)) ?x40757)) (_ bv28 32) (ite (bvsge ?x41820 (bvadd (select ?x202 (_ bv27 32)) ?x79466)) (_ bv27 32) ?x29319))))
 (let ((?x95046 (ite (bvsle (_ bv25203 32) (bvadd (bvadd ?x26334 (bvsub (_ bv29 32) ?x55538)) (_ bv24003 32))) (_ bv4294967295 32) (_ bv0 32))))
 (let ((?x24387 (ite (bvsgt (_ bv22803 32) (bvadd (bvadd ?x26334 (bvsub (_ bv29 32) ?x55538)) (_ bv24003 32))) (_ bv1 32) ?x95046)))
 (let ((?x67705 (ite (bvsle (_ bv25203 32) (bvadd (bvadd ?x26334 (bvsub (_ bv30 32) ?x55538)) (_ bv24003 32))) (_ bv4294967295 32) (_ bv0 32))))
 (let ((?x30180 (ite (bvsgt (_ bv22803 32) (bvadd (bvadd ?x26334 (bvsub (_ bv30 32) ?x55538)) (_ bv24003 32))) (_ bv1 32) ?x67705)))
 (let ((?x16646 (ite (bvsge ?x41820 (bvadd (select ?x202 (_ bv30 32)) ?x30180)) (_ bv30 32) (ite (bvsge ?x41820 (bvadd (select ?x202 (_ bv29 32)) ?x24387)) (_ bv29 32) ?x73660))))
 (let ((?x62152 (ite (bvsle (_ bv25203 32) (bvadd (bvadd ?x26334 (bvsub (_ bv31 32) ?x55538)) (_ bv24003 32))) (_ bv4294967295 32) (_ bv0 32))))
 (let ((?x23353 (ite (bvsgt (_ bv22803 32) (bvadd (bvadd ?x26334 (bvsub (_ bv31 32) ?x55538)) (_ bv24003 32))) (_ bv1 32) ?x62152)))
 (let ((?x60146 (ite (bvsle (_ bv25203 32) (bvadd (bvadd ?x26334 (bvsub (_ bv32 32) ?x55538)) (_ bv24003 32))) (_ bv4294967295 32) (_ bv0 32))))
 (let ((?x70845 (ite (bvsgt (_ bv22803 32) (bvadd (bvadd ?x26334 (bvsub (_ bv32 32) ?x55538)) (_ bv24003 32))) (_ bv1 32) ?x60146)))
 (let ((?x87214 (ite (bvsge ?x41820 (bvadd (select ?x202 (_ bv32 32)) ?x70845)) (_ bv32 32) (ite (bvsge ?x41820 (bvadd (select ?x202 (_ bv31 32)) ?x23353)) (_ bv31 32) ?x16646))))
 (let ((?x53973 (ite (bvsle (_ bv25203 32) (bvadd (bvadd ?x26334 (bvsub (_ bv33 32) ?x55538)) (_ bv24003 32))) (_ bv4294967295 32) (_ bv0 32))))
 (let ((?x76628 (ite (bvsgt (_ bv22803 32) (bvadd (bvadd ?x26334 (bvsub (_ bv33 32) ?x55538)) (_ bv24003 32))) (_ bv1 32) ?x53973)))
 (let ((?x70367 (ite (bvsle (_ bv25203 32) (bvadd (bvadd ?x26334 (bvsub (_ bv34 32) ?x55538)) (_ bv24003 32))) (_ bv4294967295 32) (_ bv0 32))))
 (let ((?x25937 (ite (bvsgt (_ bv22803 32) (bvadd (bvadd ?x26334 (bvsub (_ bv34 32) ?x55538)) (_ bv24003 32))) (_ bv1 32) ?x70367)))
 (let ((?x34371 (ite (bvsge ?x41820 (bvadd (select ?x202 (_ bv34 32)) ?x25937)) (_ bv34 32) (ite (bvsge ?x41820 (bvadd (select ?x202 (_ bv33 32)) ?x76628)) (_ bv33 32) ?x87214))))
 (let ((?x39838 (ite (bvsle (_ bv25203 32) (bvadd (bvadd ?x26334 (bvsub (_ bv35 32) ?x55538)) (_ bv24003 32))) (_ bv4294967295 32) (_ bv0 32))))
 (let ((?x14680 (ite (bvsgt (_ bv22803 32) (bvadd (bvadd ?x26334 (bvsub (_ bv35 32) ?x55538)) (_ bv24003 32))) (_ bv1 32) ?x39838)))
 (let ((?x80961 (ite (bvsle (_ bv25203 32) (bvadd (bvadd ?x26334 (bvsub (_ bv36 32) ?x55538)) (_ bv24003 32))) (_ bv4294967295 32) (_ bv0 32))))
 (let ((?x77879 (ite (bvsgt (_ bv22803 32) (bvadd (bvadd ?x26334 (bvsub (_ bv36 32) ?x55538)) (_ bv24003 32))) (_ bv1 32) ?x80961)))
 (let ((?x13260 (ite (bvsge ?x41820 (bvadd (select ?x202 (_ bv36 32)) ?x77879)) (_ bv36 32) (ite (bvsge ?x41820 (bvadd (select ?x202 (_ bv35 32)) ?x14680)) (_ bv35 32) ?x34371))))
 (let ((?x61585 (ite (bvsle (_ bv25203 32) (bvadd (bvadd ?x26334 (bvsub (_ bv37 32) ?x55538)) (_ bv24003 32))) (_ bv4294967295 32) (_ bv0 32))))
 (let ((?x47129 (ite (bvsgt (_ bv22803 32) (bvadd (bvadd ?x26334 (bvsub (_ bv37 32) ?x55538)) (_ bv24003 32))) (_ bv1 32) ?x61585)))
 (let ((?x79223 (ite (bvsle (_ bv25203 32) (bvadd (bvadd ?x26334 (bvsub (_ bv38 32) ?x55538)) (_ bv24003 32))) (_ bv4294967295 32) (_ bv0 32))))
 (let ((?x79483 (ite (bvsgt (_ bv22803 32) (bvadd (bvadd ?x26334 (bvsub (_ bv38 32) ?x55538)) (_ bv24003 32))) (_ bv1 32) ?x79223)))
 (let ((?x77642 (ite (bvsge ?x41820 (bvadd (select ?x202 (_ bv38 32)) ?x79483)) (_ bv38 32) (ite (bvsge ?x41820 (bvadd (select ?x202 (_ bv37 32)) ?x47129)) (_ bv37 32) ?x13260))))
 (let ((?x46058 (ite (bvsle (_ bv25203 32) (bvadd (bvadd ?x26334 (bvsub (_ bv39 32) ?x55538)) (_ bv24003 32))) (_ bv4294967295 32) (_ bv0 32))))
 (let ((?x77920 (ite (bvsgt (_ bv22803 32) (bvadd (bvadd ?x26334 (bvsub (_ bv39 32) ?x55538)) (_ bv24003 32))) (_ bv1 32) ?x46058)))
 (let ((?x4205 (ite (bvsle (_ bv25203 32) (bvadd (bvadd ?x26334 (bvsub (_ bv40 32) ?x55538)) (_ bv24003 32))) (_ bv4294967295 32) (_ bv0 32))))
 (let ((?x60619 (ite (bvsgt (_ bv22803 32) (bvadd (bvadd ?x26334 (bvsub (_ bv40 32) ?x55538)) (_ bv24003 32))) (_ bv1 32) ?x4205)))
 (let ((?x6523 (ite (bvsge ?x41820 (bvadd (select ?x202 (_ bv40 32)) ?x60619)) (_ bv40 32) (ite (bvsge ?x41820 (bvadd (select ?x202 (_ bv39 32)) ?x77920)) (_ bv39 32) ?x77642))))
 (let ((?x1617 (ite (bvsle (_ bv25203 32) (bvadd (bvadd ?x26334 (bvsub (_ bv41 32) ?x55538)) (_ bv24003 32))) (_ bv4294967295 32) (_ bv0 32))))
 (let ((?x787 (ite (bvsgt (_ bv22803 32) (bvadd (bvadd ?x26334 (bvsub (_ bv41 32) ?x55538)) (_ bv24003 32))) (_ bv1 32) ?x1617)))
 (let ((?x1304 (ite (bvsle (_ bv25203 32) (bvadd (bvadd ?x26334 (bvsub (_ bv42 32) ?x55538)) (_ bv24003 32))) (_ bv4294967295 32) (_ bv0 32))))
 (let ((?x8824 (ite (bvsgt (_ bv22803 32) (bvadd (bvadd ?x26334 (bvsub (_ bv42 32) ?x55538)) (_ bv24003 32))) (_ bv1 32) ?x1304)))
 (let ((?x1430 (ite (bvsge ?x41820 (bvadd (select ?x202 (_ bv42 32)) ?x8824)) (_ bv42 32) (ite (bvsge ?x41820 (bvadd (select ?x202 (_ bv41 32)) ?x787)) (_ bv41 32) ?x6523))))
 (let ((?x5271 (ite (bvsle (_ bv25203 32) (bvadd (bvadd ?x26334 (bvsub (_ bv43 32) ?x55538)) (_ bv24003 32))) (_ bv4294967295 32) (_ bv0 32))))
 (let ((?x5452 (ite (bvsgt (_ bv22803 32) (bvadd (bvadd ?x26334 (bvsub (_ bv43 32) ?x55538)) (_ bv24003 32))) (_ bv1 32) ?x5271)))
 (let ((?x3564 (ite (bvsle (_ bv25203 32) (bvadd (bvadd ?x26334 (bvsub (_ bv44 32) ?x55538)) (_ bv24003 32))) (_ bv4294967295 32) (_ bv0 32))))
 (let ((?x15513 (ite (bvsgt (_ bv22803 32) (bvadd (bvadd ?x26334 (bvsub (_ bv44 32) ?x55538)) (_ bv24003 32))) (_ bv1 32) ?x3564)))
 (let ((?x1140 (ite (bvsge ?x41820 (bvadd (select ?x202 (_ bv44 32)) ?x15513)) (_ bv44 32) (ite (bvsge ?x41820 (bvadd (select ?x202 (_ bv43 32)) ?x5452)) (_ bv43 32) ?x1430))))
 (let ((?x695 (ite (bvsle (_ bv25203 32) (bvadd (bvadd ?x26334 (bvsub (_ bv45 32) ?x55538)) (_ bv24003 32))) (_ bv4294967295 32) (_ bv0 32))))
 (let ((?x3840 (ite (bvsgt (_ bv22803 32) (bvadd (bvadd ?x26334 (bvsub (_ bv45 32) ?x55538)) (_ bv24003 32))) (_ bv1 32) ?x695)))
 (let ((?x3373 (ite (bvsle (_ bv25203 32) (bvadd (bvadd ?x26334 (bvsub (_ bv46 32) ?x55538)) (_ bv24003 32))) (_ bv4294967295 32) (_ bv0 32))))
 (let ((?x20460 (ite (bvsgt (_ bv22803 32) (bvadd (bvadd ?x26334 (bvsub (_ bv46 32) ?x55538)) (_ bv24003 32))) (_ bv1 32) ?x3373)))
 (let ((?x6475 (ite (bvsge ?x41820 (bvadd (select ?x202 (_ bv46 32)) ?x20460)) (_ bv46 32) (ite (bvsge ?x41820 (bvadd (select ?x202 (_ bv45 32)) ?x3840)) (_ bv45 32) ?x1140))))
 (let ((?x82962 (ite (bvsle (_ bv25203 32) (bvadd (bvadd ?x26334 (bvsub (_ bv47 32) ?x55538)) (_ bv24003 32))) (_ bv4294967295 32) (_ bv0 32))))
 (let ((?x64777 (ite (bvsgt (_ bv22803 32) (bvadd (bvadd ?x26334 (bvsub (_ bv47 32) ?x55538)) (_ bv24003 32))) (_ bv1 32) ?x82962)))
 (let ((?x25905 (ite (bvsge ?x41820 (bvadd (select ?x202 (_ bv47 32)) ?x64777)) (_ bv47 32) ?x6475)))
 (let ((?x81031 (bvadd ?x26334 (bvsub ?x25905 ?x55538))))
 (let ((?x3043 (bvadd ?x81031 (_ bv24003 32))))
 (let ((?x6092 (bvadd (select ?x202 ?x25905) (ite (bvsgt (_ bv22803 32) ?x3043) (_ bv1 32) (ite (bvsle (_ bv25203 32) ?x3043) (_ bv4294967295 32) (_ bv0 32))))))
 (let ((?x1983 (bvsub ?x41820 ?x6092)))
 (let ((?x2818 (ite (or (= (_ bv22802 32) ?x3043) (= (_ bv25202 32) ?x3043)) (_ bv28 32) (select ?x108 ?x25905))))
 (let ((?x43695 (ite (= (_ bv1 32) (ite (bvsge ?x1983 ?x2818) (_ bv1 32) (_ bv0 32))) (bvsub ?x1983 ?x2818) ?x1983)))
 (and (= y_months (bvadd ?x81031 (ite (bvsge ?x1983 ?x2818) (_ bv1 32) (_ bv0 32)))) (= y_beta ?x43695))))))))))))))))))))))))))))))))))))))))))))))))))))))))))))))))))))))))))))))))))))))))))))))))))))))))))))))))))))))))))))))))))))))))))))))))))))))))))))))))))))))))))))))))))))))))))))))))))))))))
(assert
 (let (($x82339 (and (= y_months (bvsub (bvadd (bvmul (_ bv2023 32) (_ bv12 32)) (_ bv2 32)) (_ bv24003 32))) (= (_ bv23 32) y_beta))))
(not $x82339)))
(check-sat)
